NAME : P-n22-k2.216.tour
COMMENT : Cost = 0_216
COMMENT : Found by LKH [Keld Helsgaun] Wed Sep 13 11:52:33 2017
TYPE : TOUR
DIMENSION : 23
TOUR_SECTION
1
7
3
14
10
8
22
18
15
6
21
23
5
12
16
13
4
20
19
9
11
2
17
-1
EOF
